243
9
246
28
185
200
12
250
98
241
108
113
94
205
43
190
264
9
51
163
56
236
188
12
157
56
208
43
180
247
156
3
121
24
55
258
88
250
214
108
79
96
95
40
11
182
21
221
194
25
31
133
126
147
168
129
195
68
111
45
167
216
141
50
119
232
60
73
137
243
59
172
10
115
57
122
171
107
133
133
106
5
133
210
172
188
159
181
173
6
150
122
136
179
212
164
153
74
66
256
